Version identifier: 22.1.0.0 | 2022-03-09 | 1a383f8ce
CPXPARAM_Threads                                 1
CPXPARAM_MIP_Strategy_VariableSelect             3
CPXPARAM_TimeLimit                               599.99726303499995
Found incumbent of value 0.000000 after 0.00 sec. (0.38 ticks)

Root node processing (before b&c):
  Real time             =    0.00 sec. (0.42 ticks)
Sequential b&c:
  Real time             =    0.00 sec. (0.00 ticks)
                          ------------
Total (root+branch&cut) =    0.00 sec. (0.42 ticks)
Version identifier: 22.1.0.0 | 2022-03-09 | 1a383f8ce
CPXPARAM_Threads                                 1
CPXPARAM_MIP_Strategy_VariableSelect             3
CPXPARAM_TimeLimit                               599.97838982500002
Found incumbent of value 0.000000 after 0.00 sec. (0.44 ticks)

Root node processing (before b&c):
  Real time             =    0.00 sec. (0.50 ticks)
Sequential b&c:
  Real time             =    0.00 sec. (0.00 ticks)
                          ------------
Total (root+branch&cut) =    0.00 sec. (0.50 ticks)
Version identifier: 22.1.0.0 | 2022-03-09 | 1a383f8ce
CPXPARAM_Threads                                 1
CPXPARAM_MIP_Strategy_VariableSelect             3
CPXPARAM_TimeLimit                               599.95804223200003
Tried aggregator 1 time.
MIP Presolve eliminated 18 rows and 864 columns.
MIP Presolve modified 4 coefficients.
Reduced MIP has 2010 rows, 2592 columns, and 22028 nonzeros.
Reduced MIP has 2592 binaries, 0 generals, 0 SOSs, and 0 indicators.
Presolve time = 0.02 sec. (13.36 ticks)
Probing time = 0.00 sec. (2.66 ticks)
Tried aggregator 1 time.
Detecting symmetries...
Reduced MIP has 2010 rows, 2592 columns, and 22028 nonzeros.
Reduced MIP has 2592 binaries, 0 generals, 0 SOSs, and 0 indicators.
Presolve time = 0.02 sec. (13.02 ticks)
Probing time = 0.00 sec. (2.66 ticks)
Clique table members: 1429.
MIP emphasis: balance optimality and feasibility.
MIP search method: dynamic search.
Parallel mode: none, using 1 thread.
Root relaxation solution time = 0.02 sec. (20.49 ticks)

        Nodes                                         Cuts/
   Node  Left     Objective  IInf  Best Integer    Best Bound    ItCnt     Gap

      0     0        0.0000   155                      0.0000      482         
*     0+    0                            0.0000        0.0000             0.00%
      0     0        cutoff              0.0000        0.0000      482    0.00%
Elapsed time = 0.19 sec. (145.38 ticks, tree = 0.01 MB, solutions = 1)

Root node processing (before b&c):
  Real time             =    0.19 sec. (145.48 ticks)
Sequential b&c:
  Real time             =    0.00 sec. (0.00 ticks)
                          ------------
Total (root+branch&cut) =    0.19 sec. (145.48 ticks)
Version identifier: 22.1.0.0 | 2022-03-09 | 1a383f8ce
CPXPARAM_Threads                                 1
CPXPARAM_MIP_Strategy_VariableSelect             3
CPXPARAM_TimeLimit                               599.74535291999996
Tried aggregator 1 time.
MIP Presolve eliminated 18 rows and 894 columns.
MIP Presolve modified 3 coefficients.
Reduced MIP has 2080 rows, 2682 columns, and 22798 nonzeros.
Reduced MIP has 2682 binaries, 0 generals, 0 SOSs, and 0 indicators.
Presolve time = 0.02 sec. (13.78 ticks)
Probing time = 0.00 sec. (2.68 ticks)
Tried aggregator 1 time.
Detecting symmetries...
Reduced MIP has 2080 rows, 2682 columns, and 22798 nonzeros.
Reduced MIP has 2682 binaries, 0 generals, 0 SOSs, and 0 indicators.
Presolve time = 0.02 sec. (13.46 ticks)
Probing time = 0.00 sec. (2.68 ticks)
Clique table members: 1479.
MIP emphasis: balance optimality and feasibility.
MIP search method: dynamic search.
Parallel mode: none, using 1 thread.
Root relaxation solution time = 0.02 sec. (19.35 ticks)

        Nodes                                         Cuts/
   Node  Left     Objective  IInf  Best Integer    Best Bound    ItCnt     Gap

      0     0        0.0000   142                      0.0000      500         
*     0+    0                            0.0000        0.0000             0.00%
      0     0        cutoff              0.0000        0.0000      500    0.00%
Elapsed time = 0.21 sec. (161.94 ticks, tree = 0.01 MB, solutions = 1)

Root node processing (before b&c):
  Real time             =    0.21 sec. (162.05 ticks)
Sequential b&c:
  Real time             =    0.00 sec. (0.00 ticks)
                          ------------
Total (root+branch&cut) =    0.21 sec. (162.05 ticks)
Version identifier: 22.1.0.0 | 2022-03-09 | 1a383f8ce
CPXPARAM_Threads                                 1
CPXPARAM_MIP_Strategy_VariableSelect             3
CPXPARAM_TimeLimit                               599.511702023
Tried aggregator 1 time.
MIP Presolve eliminated 18 rows and 909 columns.
MIP Presolve modified 3 coefficients.
Reduced MIP has 2115 rows, 2727 columns, and 23183 nonzeros.
Reduced MIP has 2727 binaries, 0 generals, 0 SOSs, and 0 indicators.
Presolve time = 0.02 sec. (14.01 ticks)
Probing time = 0.00 sec. (2.69 ticks)
Tried aggregator 1 time.
Detecting symmetries...
Reduced MIP has 2115 rows, 2727 columns, and 23183 nonzeros.
Reduced MIP has 2727 binaries, 0 generals, 0 SOSs, and 0 indicators.
Presolve time = 0.02 sec. (13.68 ticks)
Probing time = 0.00 sec. (2.69 ticks)
Clique table members: 1504.
MIP emphasis: balance optimality and feasibility.
MIP search method: dynamic search.
Parallel mode: none, using 1 thread.
Root relaxation solution time = 0.03 sec. (23.98 ticks)

        Nodes                                         Cuts/
   Node  Left     Objective  IInf  Best Integer    Best Bound    ItCnt     Gap

      0     0        0.0000   198                      0.0000      596         
*     0+    0                            0.0000        0.0000             0.00%
      0     0        cutoff              0.0000        0.0000      596    0.00%
Elapsed time = 0.23 sec. (177.16 ticks, tree = 0.01 MB, solutions = 1)

Root node processing (before b&c):
  Real time             =    0.23 sec. (177.27 ticks)
Sequential b&c:
  Real time             =    0.00 sec. (0.00 ticks)
                          ------------
Total (root+branch&cut) =    0.23 sec. (177.27 ticks)
Version identifier: 22.1.0.0 | 2022-03-09 | 1a383f8ce
CPXPARAM_Threads                                 1
CPXPARAM_MIP_Strategy_VariableSelect             3
CPXPARAM_TimeLimit                               599.26135394100004
Tried aggregator 1 time.
MIP Presolve eliminated 18 rows and 918 columns.
MIP Presolve modified 3 coefficients.
Reduced MIP has 2136 rows, 2754 columns, and 23414 nonzeros.
Reduced MIP has 2754 binaries, 0 generals, 0 SOSs, and 0 indicators.
Presolve time = 0.02 sec. (14.14 ticks)
Probing time = 0.00 sec. (2.70 ticks)
Tried aggregator 1 time.
Detecting symmetries...
Reduced MIP has 2136 rows, 2754 columns, and 23414 nonzeros.
Reduced MIP has 2754 binaries, 0 generals, 0 SOSs, and 0 indicators.
Presolve time = 0.02 sec. (13.82 ticks)
Probing time = 0.00 sec. (2.70 ticks)
Clique table members: 1519.
MIP emphasis: balance optimality and feasibility.
MIP search method: dynamic search.
Parallel mode: none, using 1 thread.
Root relaxation solution time = 0.03 sec. (26.14 ticks)

        Nodes                                         Cuts/
   Node  Left     Objective  IInf  Best Integer    Best Bound    ItCnt     Gap

      0     0        0.0000   177                      0.0000      617         
*     0+    0                            0.0000        0.0000             0.00%
      0     0        cutoff              0.0000        0.0000      617    0.00%
Elapsed time = 0.22 sec. (175.01 ticks, tree = 0.01 MB, solutions = 1)

Root node processing (before b&c):
  Real time             =    0.22 sec. (175.12 ticks)
Sequential b&c:
  Real time             =    0.00 sec. (0.00 ticks)
                          ------------
Total (root+branch&cut) =    0.22 sec. (175.12 ticks)
Version identifier: 22.1.0.0 | 2022-03-09 | 1a383f8ce
CPXPARAM_Threads                                 1
CPXPARAM_MIP_Strategy_VariableSelect             3
CPXPARAM_TimeLimit                               599.01668464500005
Tried aggregator 1 time.
MIP Presolve eliminated 18 rows and 921 columns.
MIP Presolve modified 3 coefficients.
Reduced MIP has 2143 rows, 2763 columns, and 23491 nonzeros.
Reduced MIP has 2763 binaries, 0 generals, 0 SOSs, and 0 indicators.
Presolve time = 0.02 sec. (14.18 ticks)
Probing time = 0.00 sec. (2.70 ticks)
Tried aggregator 1 time.
Detecting symmetries...
Reduced MIP has 2143 rows, 2763 columns, and 23491 nonzeros.
Reduced MIP has 2763 binaries, 0 generals, 0 SOSs, and 0 indicators.
Presolve time = 0.02 sec. (13.85 ticks)
Probing time = 0.00 sec. (2.70 ticks)
Clique table members: 1524.
MIP emphasis: balance optimality and feasibility.
MIP search method: dynamic search.
Parallel mode: none, using 1 thread.
Root relaxation solution time = 0.02 sec. (20.76 ticks)

        Nodes                                         Cuts/
   Node  Left     Objective  IInf  Best Integer    Best Bound    ItCnt     Gap

      0     0        0.0000   198                      0.0000      542         
*     0+    0                            0.0000        0.0000             0.00%
      0     0        cutoff              0.0000        0.0000      542    0.00%
Elapsed time = 0.23 sec. (179.14 ticks, tree = 0.01 MB, solutions = 1)

Root node processing (before b&c):
  Real time             =    0.23 sec. (179.26 ticks)
Sequential b&c:
  Real time             =    0.00 sec. (0.00 ticks)
                          ------------
Total (root+branch&cut) =    0.23 sec. (179.26 ticks)
Version identifier: 22.1.0.0 | 2022-03-09 | 1a383f8ce
CPXPARAM_Threads                                 1
CPXPARAM_MIP_Strategy_VariableSelect             3
CPXPARAM_TimeLimit                               598.76117754200004
Tried aggregator 1 time.
MIP Presolve eliminated 18 rows and 924 columns.
MIP Presolve modified 3 coefficients.
Reduced MIP has 2150 rows, 2772 columns, and 23568 nonzeros.
Reduced MIP has 2772 binaries, 0 generals, 0 SOSs, and 0 indicators.
Presolve time = 0.02 sec. (14.24 ticks)
Probing time = 0.00 sec. (2.70 ticks)
Tried aggregator 1 time.
Detecting symmetries...
Reduced MIP has 2150 rows, 2772 columns, and 23568 nonzeros.
Reduced MIP has 2772 binaries, 0 generals, 0 SOSs, and 0 indicators.
Presolve time = 0.02 sec. (13.91 ticks)
Probing time = 0.00 sec. (2.70 ticks)
Clique table members: 1529.
MIP emphasis: balance optimality and feasibility.
MIP search method: dynamic search.
Parallel mode: none, using 1 thread.
Root relaxation solution time = 0.02 sec. (22.33 ticks)

        Nodes                                         Cuts/
   Node  Left     Objective  IInf  Best Integer    Best Bound    ItCnt     Gap

      0     0        0.0000   195                      0.0000      579         
*     0+    0                            0.0000        0.0000             0.00%
      0     0        cutoff              0.0000        0.0000      579    0.00%
Elapsed time = 0.26 sec. (197.62 ticks, tree = 0.01 MB, solutions = 1)

Root node processing (before b&c):
  Real time             =    0.26 sec. (197.73 ticks)
Sequential b&c:
  Real time             =    0.00 sec. (0.00 ticks)
                          ------------
Total (root+branch&cut) =    0.26 sec. (197.73 ticks)
Primal:	308
Dual:	308
Status:	Optimal
Time:	1.51762
Sequence:
	9
	6
	9
	9
	9
	9
	5
	9
	9
	9
	6
	9
	5
	9
	9
	9
	6
	9
	9
	9
	9
	6
	9
	9
	5
	9
	9
	9
	9
	6
	9
	9
	9
	9
	6
	9
	9
	9
	6
	9
	9
	9
	6
	9
	5
	9
	9
	9
	6
	9
	9
	9
	6
	9
	5
	9
	9
	6
	9
	9
	5
	9
	6
	9
	9
	9
	9
	5
	9
	6
	9
	9
	9
	9
	9
	6
	9
	9
	9
	6
	9
	9
	9
	6
	9
	9
	5
	9
	5
	9
	6
	9
	9
	9
	5
	9
	5
	9
	9
	9
	9
	6
	4
	9
	5
	9
	0
	1
	4
	5
	0
	4
	9
	4
	6
	9
	5
	4
	9
	6
	0
	3
	9
	4
	5
	9
	6
	0
	9
	5
	0
	10
	4
	6
	9
	4
	5
	9
	0
	5
	4
	9
	1
	4
	1
	9
	6
	2
	5
	9
	6
	0
	5
	9
	4
	6
	9
	10
	4
	6
	0
	3
	4
	6
	9
	1
	9
	0
	6
	9
	9
	5
	2
	6
	9
	9
	5
	0
	6
	4
	3
	0
	9
	6
	4
	1
	9
	6
	0
	5
	9
	6
	9
	5
	0
	4
	5
	9
	6
	2
	9
	1
	4
	1
	9
	9
	6
	0
	4
	5
	9
	6
	9
	10
	9
	9
	6
	9
	9
	0
	1
	9
	6
	9
	5
	9
	9
	6
	9
	5
	9
	6
	0
	5
	9
	6
	0
	9
	4
	5
	2
	9
	6
	4
	9
	10
	0
	6
	9
	1
	2
	6
	4
	9
	4
	6
	9
	9
	5
	9
	6
	9
	4
	2
	4
	6
	0
	4
	4
	9
	9
	4
	6
	9
	4
	0
	5
	9
	6
	0
	3
	9
	9
	5
	4
	0
	6
	9
	0
	4
	6
	2
	5
	9
	6
	9
	5
	0
	6
	4
	9
	4
	1
	9
	6
	2
	4
	5
